c preprocessed version of SchlaefliGraph, 27 vertices, 216 edges
p td 27 216
0 3
0 4
0 5
0 6
0 7
0 8
0 9
0 10
0 11
0 13
0 14
0 15
0 16
0 17
0 18
0 19
1 2
1 11
1 13
1 14
1 15
1 16
1 17
1 18
1 19
1 20
1 21
1 22
1 23
1 24
1 25
1 26
2 3
2 6
2 8
2 9
2 13
2 14
2 16
2 19
3 4
3 5
3 6
3 7
3 8
3 9
3 11
3 13
3 14
3 16
4 5
4 6
4 7
4 8
4 10
4 11
4 13
4 15
4 17
5 6
5 7
5 9
5 10
5 11
5 14
5 15
5 18
6 8
6 9
6 10
6 13
6 14
6 15
6 19
7 8
7 9
7 10
7 11
7 16
7 17
7 18
8 9
8 10
8 13
8 16
8 17
8 19
9 10
9 14
9 16
9 18
9 19
10 15
10 17
10 18
10 19
11 13
11 14
11 15
11 16
11 17
11 18
12 2
12 3
12 4
12 5
12 6
12 7
12 8
12 9
12 10
12 20
12 21
12 22
12 23
12 24
12 25
12 26
13 14
13 15
13 16
13 17
13 19
14 15
14 16
14 18
14 19
15 17
15 18
15 19
16 17
16 18
16 19
17 18
17 19
18 19
20 2
20 7
20 8
20 9
20 10
20 16
20 17
20 18
20 19
20 22
20 23
20 24
20 25
20 26
21 2
21 3
21 4
21 5
21 6
21 11
21 13
21 14
21 15
21 22
21 23
21 24
21 25
21 26
22 2
22 5
22 6
22 9
22 10
22 14
22 15
22 18
22 19
22 24
22 25
22 26
23 2
23 3
23 4
23 7
23 8
23 11
23 13
23 16
23 17
23 24
23 25
23 26
24 2
24 4
24 6
24 8
24 10
24 13
24 15
24 17
24 19
24 26
25 2
25 3
25 5
25 7
25 9
25 11
25 14
25 16
25 18
25 26
26 4
26 5
26 7
26 10
26 11
26 15
26 17
26 18
